NAME: eil51
COMMENT: ILS com limite de estagnacao = 10 - Fernanda V, Paula Laiz, Stephany | Tempo de execucao: 0.008677s
TYPE: TOUR
DIMENSION: 51
TOTAL_WEIGHT: 427
TOUR_SECTION
1
32
11
38
5
49
9
30
10
39
33
45
15
37
17
44
42
40
19
41
13
25
14
18
4
47
12
46
51
27
6
48
23
24
43
7
26
8
31
28
3
36
35
20
29
21
34
50
16
2
22
EOF
